\ENCODING=ISO-8859-1
\Problem name: IloCplex

Maximize
 obj: y1 + y2 + y3 + y4 + y5 + y6 + y7
Subject To
 c1:           y0  = 1
 c2:           y8  = 1
 c3:           - y1 + x01 + x21 + x31 + x41 + x51 + x61 + x71  = 0
 c4:           - y2 + x02 + x12 + x32 + x42 + x52 + x62 + x72  = 0
 c5:           - y3 + x03 + x13 + x23 + x43 + x53 + x63 + x73  = 0
 c6:           - y4 + x04 + x14 + x24 + x34 + x54 + x64 + x74  = 0
 c7:           - y5 + x05 + x15 + x25 + x35 + x45 + x65 + x75  = 0
 c8:           - y6 + x06 + x16 + x26 + x36 + x46 + x56 + x76  = 0
 c9:           - y7 + x07 + x17 + x27 + x37 + x47 + x57 + x67  = 0
 c10:          - y8 + x08 + x18 + x28 + x38 + x48 + x58 + x68 + x78  = 0
 c11:          - y0 + x01 + x02 + x03 + x04 + x05 + x06 + x07 + x08  = 0
 c12:          - y1 + x12 + x13 + x14 + x15 + x16 + x17 + x18  = 0
 c13:          - y2 + x21 + x23 + x24 + x25 + x26 + x27 + x28  = 0
 c14:          - y3 + x31 + x32 + x34 + x35 + x36 + x37 + x38  = 0
 c15:          - y4 + x41 + x42 + x43 + x45 + x46 + x47 + x48  = 0
 c16:          - y5 + x51 + x52 + x53 + x54 + x56 + x57 + x58  = 0
 c17:          - y6 + x61 + x62 + x63 + x64 + x65 + x67 + x68  = 0
 c18:          - y7 + x71 + x72 + x73 + x74 + x75 + x76 + x78  = 0
 c19:          - y1 + f01 - f12 - f13 - f14 - f15 - f16 - f17 - f18 + f21 + f31
               + f41 + f51 + f61 + f71  = 0
 c20:          - y2 + f02 + f12 - f21 - f23 - f24 - f25 - f26 - f27 - f28 + f32
               + f42 + f52 + f62 + f72  = 0
 c21:          - y3 + f03 + f13 + f23 - f31 - f32 - f34 - f35 - f36 - f37 - f38
               + f43 + f53 + f63 + f73  = 0
 c22:          - y4 + f04 + f14 + f24 + f34 - f41 - f42 - f43 - f45 - f46 - f47
               - f48 + f54 + f64 + f74  = 0
 c23:          - y5 + f05 + f15 + f25 + f35 + f45 - f51 - f52 - f53 - f54 - f56
               - f57 - f58 + f65 + f75  = 0
 c24:          - y6 + f06 + f16 + f26 + f36 + f46 + f56 - f61 - f62 - f63 - f64
               - f65 - f67 - f68 + f76  = 0
 c25:          - y7 + f07 + f17 + f27 + f37 + f47 + f57 + f67 - f71 - f72 - f73
               - f74 - f75 - f76 - f78  = 0
 c26:          - y8 + f08 + f18 + f28 + f38 + f48 + f58 + f68 + f78 - f81 - f82
               - f83 - f84 - f85 - f86 - f87  = 0
 c27:          - 8 x01 + f01 <= 0
 c28:          - 8 x02 + f02 <= 0
 c29:          - 8 x03 + f03 <= 0
 c30:          - 8 x04 + f04 <= 0
 c31:          - 8 x05 + f05 <= 0
 c32:          - 8 x06 + f06 <= 0
 c33:          - 8 x07 + f07 <= 0
 c34:          - 8 x08 + f08 <= 0
 c35:          - 8 x10 + f10 <= 0
 c36:          - 8 x12 + f12 <= 0
 c37:          - 8 x13 + f13 <= 0
 c38:          - 8 x14 + f14 <= 0
 c39:          - 8 x15 + f15 <= 0
 c40:          - 8 x16 + f16 <= 0
 c41:          - 8 x17 + f17 <= 0
 c42:          - 8 x18 + f18 <= 0
 c43:          - 8 x20 + f20 <= 0
 c44:          - 8 x21 + f21 <= 0
 c45:          - 8 x23 + f23 <= 0
 c46:          - 8 x24 + f24 <= 0
 c47:          - 8 x25 + f25 <= 0
 c48:          - 8 x26 + f26 <= 0
 c49:          - 8 x27 + f27 <= 0
 c50:          - 8 x28 + f28 <= 0
 c51:          - 8 x30 + f30 <= 0
 c52:          - 8 x31 + f31 <= 0
 c53:          - 8 x32 + f32 <= 0
 c54:          - 8 x34 + f34 <= 0
 c55:          - 8 x35 + f35 <= 0
 c56:          - 8 x36 + f36 <= 0
 c57:          - 8 x37 + f37 <= 0
 c58:          - 8 x38 + f38 <= 0
 c59:          - 8 x40 + f40 <= 0
 c60:          - 8 x41 + f41 <= 0
 c61:          - 8 x42 + f42 <= 0
 c62:          - 8 x43 + f43 <= 0
 c63:          - 8 x45 + f45 <= 0
 c64:          - 8 x46 + f46 <= 0
 c65:          - 8 x47 + f47 <= 0
 c66:          - 8 x48 + f48 <= 0
 c67:          - 8 x50 + f50 <= 0
 c68:          - 8 x51 + f51 <= 0
 c69:          - 8 x52 + f52 <= 0
 c70:          - 8 x53 + f53 <= 0
 c71:          - 8 x54 + f54 <= 0
 c72:          - 8 x56 + f56 <= 0
 c73:          - 8 x57 + f57 <= 0
 c74:          - 8 x58 + f58 <= 0
 c75:          - 8 x60 + f60 <= 0
 c76:          - 8 x61 + f61 <= 0
 c77:          - 8 x62 + f62 <= 0
 c78:          - 8 x63 + f63 <= 0
 c79:          - 8 x64 + f64 <= 0
 c80:          - 8 x65 + f65 <= 0
 c81:          - 8 x67 + f67 <= 0
 c82:          - 8 x68 + f68 <= 0
 c83:          - 8 x70 + f70 <= 0
 c84:          - 8 x71 + f71 <= 0
 c85:          - 8 x72 + f72 <= 0
 c86:          - 8 x73 + f73 <= 0
 c87:          - 8 x74 + f74 <= 0
 c88:          - 8 x75 + f75 <= 0
 c89:          - 8 x76 + f76 <= 0
 c90:          - 8 x78 + f78 <= 0
 c91:          - 8 x80 + f80 <= 0
 c92:          - 8 x81 + f81 <= 0
 c93:          - 8 x82 + f82 <= 0
 c94:          - 8 x83 + f83 <= 0
 c95:          - 8 x84 + f84 <= 0
 c96:          - 8 x85 + f85 <= 0
 c97:          - 8 x86 + f86 <= 0
 c98:          - 8 x87 + f87 <= 0
 c99:          z01  = 1
 c100:         z08  = 1
 c101:         z02  = 1
 c102:         z18  = 1
 c103:         z03  = 1
 c104:         z28  = 1
 c105:         z04  = 1
 c106:         z38  = 1
 c107:         z05  = 1
 c108:         z48  = 1
 c109:         z06  = 1
 c110:         z58  = 1
 c111:         z07  = 1
 c112:         z68  = 1
 c113:         z08  = 1
 c114:         z78  = 1
 doideira_1:   1000 z12 + f02 - f13 - f14 - f15 - f16 - f17 - f18 + f32 + f42
               + f52 + f62 + f72 >= 1
 doideira_1:   1000 z13 + f03 - f12 - f14 - f15 - f16 - f17 - f18 + f23 + f43
               + f53 + f63 + f73 >= 1
 doideira_1:   1000 z14 + f04 - f12 - f13 - f15 - f16 - f17 - f18 + f24 + f34
               + f54 + f64 + f74 >= 1
 doideira_1:   1000 z15 + f05 - f12 - f13 - f14 - f16 - f17 - f18 + f25 + f35
               + f45 + f65 + f75 >= 1
 doideira_1:   1000 z16 + f06 - f12 - f13 - f14 - f15 - f17 - f18 + f26 + f36
               + f46 + f56 + f76 >= 1
 doideira_1:   1000 z17 + f07 - f12 - f13 - f14 - f15 - f16 - f18 + f27 + f37
               + f47 + f57 + f67 >= 1
 doideira_1:   1000 z21 + f01 - f23 - f24 - f25 - f26 - f27 - f28 + f31 + f41
               + f51 + f61 + f71 >= 1
 doideira_1:   1000 z23 + f03 + f13 - f21 - f24 - f25 - f26 - f27 - f28 + f43
               + f53 + f63 + f73 >= 1
 doideira_1:   1000 z24 + f04 + f14 - f21 - f23 - f25 - f26 - f27 - f28 + f34
               + f54 + f64 + f74 >= 1
 doideira_1:   1000 z25 + f05 + f15 - f21 - f23 - f24 - f26 - f27 - f28 + f35
               + f45 + f65 + f75 >= 1
 doideira_1:   1000 z26 + f06 + f16 - f21 - f23 - f24 - f25 - f27 - f28 + f36
               + f46 + f56 + f76 >= 1
 doideira_1:   1000 z27 + f07 + f17 - f21 - f23 - f24 - f25 - f26 - f28 + f37
               + f47 + f57 + f67 >= 1
 doideira_1:   1000 z31 + f01 + f21 - f32 - f34 - f35 - f36 - f37 - f38 + f41
               + f51 + f61 + f71 >= 1
 doideira_1:   1000 z32 + f02 + f12 - f31 - f34 - f35 - f36 - f37 - f38 + f42
               + f52 + f62 + f72 >= 1
 doideira_1:   1000 z34 + f04 + f14 + f24 - f31 - f32 - f35 - f36 - f37 - f38
               + f54 + f64 + f74 >= 1
 doideira_1:   1000 z35 + f05 + f15 + f25 - f31 - f32 - f34 - f36 - f37 - f38
               + f45 + f65 + f75 >= 1
 doideira_1:   1000 z36 + f06 + f16 + f26 - f31 - f32 - f34 - f35 - f37 - f38
               + f46 + f56 + f76 >= 1
 doideira_1:   1000 z37 + f07 + f17 + f27 - f31 - f32 - f34 - f35 - f36 - f38
               + f47 + f57 + f67 >= 1
 doideira_1:   1000 z41 + f01 + f21 + f31 - f42 - f43 - f45 - f46 - f47 - f48
               + f51 + f61 + f71 >= 1
 doideira_1:   1000 z42 + f02 + f12 + f32 - f41 - f43 - f45 - f46 - f47 - f48
               + f52 + f62 + f72 >= 1
 doideira_1:   1000 z43 + f03 + f13 + f23 - f41 - f42 - f45 - f46 - f47 - f48
               + f53 + f63 + f73 >= 1
 doideira_1:   1000 z45 + f05 + f15 + f25 + f35 - f41 - f42 - f43 - f46 - f47
               - f48 + f65 + f75 >= 1
 doideira_1:   1000 z46 + f06 + f16 + f26 + f36 - f41 - f42 - f43 - f45 - f47
               - f48 + f56 + f76 >= 1
 doideira_1:   1000 z47 + f07 + f17 + f27 + f37 - f41 - f42 - f43 - f45 - f46
               - f48 + f57 + f67 >= 1
 doideira_1:   1000 z51 + f01 + f21 + f31 + f41 - f52 - f53 - f54 - f56 - f57
               - f58 + f61 + f71 >= 1
 doideira_1:   1000 z52 + f02 + f12 + f32 + f42 - f51 - f53 - f54 - f56 - f57
               - f58 + f62 + f72 >= 1
 doideira_1:   1000 z53 + f03 + f13 + f23 + f43 - f51 - f52 - f54 - f56 - f57
               - f58 + f63 + f73 >= 1
 doideira_1:   1000 z54 + f04 + f14 + f24 + f34 - f51 - f52 - f53 - f56 - f57
               - f58 + f64 + f74 >= 1
 doideira_1:   1000 z56 + f06 + f16 + f26 + f36 + f46 - f51 - f52 - f53 - f54
               - f57 - f58 + f76 >= 1
 doideira_1:   1000 z57 + f07 + f17 + f27 + f37 + f47 - f51 - f52 - f53 - f54
               - f56 - f58 + f67 >= 1
 doideira_1:   1000 z61 + f01 + f21 + f31 + f41 + f51 - f62 - f63 - f64 - f65
               - f67 - f68 + f71 >= 1
 doideira_1:   1000 z62 + f02 + f12 + f32 + f42 + f52 - f61 - f63 - f64 - f65
               - f67 - f68 + f72 >= 1
 doideira_1:   1000 z63 + f03 + f13 + f23 + f43 + f53 - f61 - f62 - f64 - f65
               - f67 - f68 + f73 >= 1
 doideira_1:   1000 z64 + f04 + f14 + f24 + f34 + f54 - f61 - f62 - f63 - f65
               - f67 - f68 + f74 >= 1
 doideira_1:   1000 z65 + f05 + f15 + f25 + f35 + f45 - f61 - f62 - f63 - f64
               - f67 - f68 + f75 >= 1
 doideira_1:   1000 z67 + f07 + f17 + f27 + f37 + f47 + f57 - f61 - f62 - f63
               - f64 - f65 - f68 >= 1
 doideira_1:   1000 z71 + f01 + f21 + f31 + f41 + f51 + f61 - f72 - f73 - f74
               - f75 - f76 - f78 >= 1
 doideira_1:   1000 z72 + f02 + f12 + f32 + f42 + f52 + f62 - f71 - f73 - f74
               - f75 - f76 - f78 >= 1
 doideira_1:   1000 z73 + f03 + f13 + f23 + f43 + f53 + f63 - f71 - f72 - f74
               - f75 - f76 - f78 >= 1
 doideira_1:   1000 z74 + f04 + f14 + f24 + f34 + f54 + f64 - f71 - f72 - f73
               - f75 - f76 - f78 >= 1
 doideira_1:   1000 z75 + f05 + f15 + f25 + f35 + f45 + f65 - f71 - f72 - f73
               - f74 - f76 - f78 >= 1
 doideira_1:   1000 z76 + f06 + f16 + f26 + f36 + f46 + f56 - f71 - f72 - f73
               - f74 - f75 - f78 >= 1
 doideira_21:  - 1000 y0 - 1000 y1 - 999 z01 - z10 - z20 + z21 - z30 + z31
               - z40 + z41 - z50 + z51 - z60 + z61 - z70 + z71 - z80 + z81
               >= -2999
 doideira_22:  - 1000 y0 - 1000 y2 - 999 z02 - z10 + z12 - z20 - z30 + z32
               - z40 + z42 - z50 + z52 - z60 + z62 - z70 + z72 - z80 + z82
               >= -2999
 doideira_23:  - 1000 y0 - 1000 y3 - 999 z03 - z10 + z13 - z20 + z23 - z30
               - z40 + z43 - z50 + z53 - z60 + z63 - z70 + z73 - z80 + z83
               >= -2999
 doideira_24:  - 1000 y0 - 1000 y4 - 999 z04 - z10 + z14 - z20 + z24 - z30
               + z34 - z40 - z50 + z54 - z60 + z64 - z70 + z74 - z80 + z84
               >= -2999
 doideira_25:  - 1000 y0 - 1000 y5 - 999 z05 - z10 + z15 - z20 + z25 - z30
               + z35 - z40 + z45 - z50 - z60 + z65 - z70 + z75 - z80 + z85
               >= -2999
 doideira_26:  - 1000 y0 - 1000 y6 - 999 z06 - z10 + z16 - z20 + z26 - z30
               + z36 - z40 + z46 - z50 + z56 - z60 - z70 + z76 - z80 + z86
               >= -2999
 doideira_27:  - 1000 y0 - 1000 y7 - 999 z07 - z10 + z17 - z20 + z27 - z30
               + z37 - z40 + z47 - z50 + z57 - z60 + z67 - z70 - z80 + z87
               >= -2999
 doideira_28:  - 1000 y0 - 1000 y8 - 999 z08 - z10 + z18 - z20 + z28 - z30
               + z38 - z40 + z48 - z50 + z58 - z60 + z68 - z70 + z78 - z80
               >= -2999
 doideira_29:  - 1000 y0 - 1000 y1 - z01 - 999 z10 + z20 - z21 + z30 - z31
               + z40 - z41 + z50 - z51 + z60 - z61 + z70 - z71 + z80 - z81
               >= -2999
 doideira_211: - 1000 y1 - 1000 y2 - z01 + z02 - 999 z12 - z21 - z31 + z32
               - z41 + z42 - z51 + z52 - z61 + z62 - z71 + z72 - z81 + z82
               >= -2999
 doideira_212: - 1000 y1 - 1000 y3 - z01 + z03 - 999 z13 - z21 + z23 - z31
               - z41 + z43 - z51 + z53 - z61 + z63 - z71 + z73 - z81 + z83
               >= -2999
 doideira_213: - 1000 y1 - 1000 y4 - z01 + z04 - 999 z14 - z21 + z24 - z31
               + z34 - z41 - z51 + z54 - z61 + z64 - z71 + z74 - z81 + z84
               >= -2989
 doideira_214: - 1000 y1 - 1000 y5 - z01 + z05 - 999 z15 - z21 + z25 - z31
               + z35 - z41 + z45 - z51 - z61 + z65 - z71 + z75 - z81 + z85
               >= -2999
 doideira_215: - 1000 y1 - 1000 y6 - z01 + z06 - 999 z16 - z21 + z26 - z31
               + z36 - z41 + z46 - z51 + z56 - z61 - z71 + z76 - z81 + z86
               >= -2999
 doideira_216: - 1000 y1 - 1000 y7 - z01 + z07 - 999 z17 - z21 + z27 - z31
               + z37 - z41 + z47 - z51 + z57 - z61 + z67 - z71 - z81 + z87
               >= -2999
 doideira_217: - 1000 y1 - 1000 y8 - z01 + z08 - 999 z18 - z21 + z28 - z31
               + z38 - z41 + z48 - z51 + z58 - z61 + z68 - z71 + z78 - z81
               >= -2999
 doideira_218: - 1000 y0 - 1000 y2 - z02 + z10 - z12 - 999 z20 + z30 - z32
               + z40 - z42 + z50 - z52 + z60 - z62 + z70 - z72 + z80 - z82
               >= -2999
 doideira_219: - 1000 y1 - 1000 y2 + z01 - z02 - z12 - 999 z21 + z31 - z32
               + z41 - z42 + z51 - z52 + z61 - z62 + z71 - z72 + z81 - z82
               >= -2999
 doideira_221: - 1000 y2 - 1000 y3 - z02 + z03 - z12 + z13 - 999 z23 - z32
               - z42 + z43 - z52 + z53 - z62 + z63 - z72 + z73 - z82 + z83
               >= -2999
 doideira_222: - 1000 y2 - 1000 y4 - z02 + z04 - z12 + z14 - 999 z24 - z32
               + z34 - z42 - z52 + z54 - z62 + z64 - z72 + z74 - z82 + z84
               >= -2999
 doideira_223: - 1000 y2 - 1000 y5 - z02 + z05 - z12 + z15 - 999 z25 - z32
               + z35 - z42 + z45 - z52 - z62 + z65 - z72 + z75 - z82 + z85
               >= -2999
 doideira_224: - 1000 y2 - 1000 y6 - z02 + z06 - z12 + z16 - 999 z26 - z32
               + z36 - z42 + z46 - z52 + z56 - z62 - z72 + z76 - z82 + z86
               >= -2999
 doideira_225: - 1000 y2 - 1000 y7 - z02 + z07 - z12 + z17 - 999 z27 - z32
               + z37 - z42 + z47 - z52 + z57 - z62 + z67 - z72 - z82 + z87
               >= -2999
 doideira_226: - 1000 y2 - 1000 y8 - z02 + z08 - z12 + z18 - 999 z28 - z32
               + z38 - z42 + z48 - z52 + z58 - z62 + z68 - z72 + z78 - z82
               >= -2999
 doideira_227: - 1000 y0 - 1000 y3 - z03 + z10 - z13 + z20 - z23 - 999 z30
               + z40 - z43 + z50 - z53 + z60 - z63 + z70 - z73 + z80 - z83
               >= -2999
 doideira_228: - 1000 y1 - 1000 y3 + z01 - z03 - z13 + z21 - z23 - 999 z31
               + z41 - z43 + z51 - z53 + z61 - z63 + z71 - z73 + z81 - z83
               >= -2999
 doideira_229: - 1000 y2 - 1000 y3 + z02 - z03 + z12 - z13 - z23 - 999 z32
               + z42 - z43 + z52 - z53 + z62 - z63 + z72 - z73 + z82 - z83
               >= -2999
 doideira_231: - 1000 y3 - 1000 y4 - z03 + z04 - z13 + z14 - z23 + z24
               - 999 z34 - z43 - z53 + z54 - z63 + z64 - z73 + z74 - z83 + z84
               >= -2999
 doideira_232: - 1000 y3 - 1000 y5 - z03 + z05 - z13 + z15 - z23 + z25
               - 999 z35 - z43 + z45 - z53 - z63 + z65 - z73 + z75 - z83 + z85
               >= -2999
 doideira_233: - 1000 y3 - 1000 y6 - z03 + z06 - z13 + z16 - z23 + z26
               - 999 z36 - z43 + z46 - z53 + z56 - z63 - z73 + z76 - z83 + z86
               >= -2999
 doideira_234: - 1000 y3 - 1000 y7 - z03 + z07 - z13 + z17 - z23 + z27
               - 999 z37 - z43 + z47 - z53 + z57 - z63 + z67 - z73 - z83 + z87
               >= -2999
 doideira_235: - 1000 y3 - 1000 y8 - z03 + z08 - z13 + z18 - z23 + z28
               - 999 z38 - z43 + z48 - z53 + z58 - z63 + z68 - z73 + z78 - z83
               >= -2999
 doideira_236: - 1000 y0 - 1000 y4 - z04 + z10 - z14 + z20 - z24 + z30 - z34
               - 999 z40 + z50 - z54 + z60 - z64 + z70 - z74 + z80 - z84
               >= -2999
 doideira_237: - 1000 y1 - 1000 y4 + z01 - z04 - z14 + z21 - z24 + z31 - z34
               - 999 z41 + z51 - z54 + z61 - z64 + z71 - z74 + z81 - z84
               >= -2989
 doideira_238: - 1000 y2 - 1000 y4 + z02 - z04 + z12 - z14 - z24 + z32 - z34
               - 999 z42 + z52 - z54 + z62 - z64 + z72 - z74 + z82 - z84
               >= -2999
 doideira_239: - 1000 y3 - 1000 y4 + z03 - z04 + z13 - z14 + z23 - z24 - z34
               - 999 z43 + z53 - z54 + z63 - z64 + z73 - z74 + z83 - z84
               >= -2999
 doideira_241: - 1000 y4 - 1000 y5 - z04 + z05 - z14 + z15 - z24 + z25 - z34
               + z35 - 999 z45 - z54 - z64 + z65 - z74 + z75 - z84 + z85
               >= -2999
 doideira_242: - 1000 y4 - 1000 y6 - z04 + z06 - z14 + z16 - z24 + z26 - z34
               + z36 - 999 z46 - z54 + z56 - z64 - z74 + z76 - z84 + z86
               >= -2999
 doideira_243: - 1000 y4 - 1000 y7 - z04 + z07 - z14 + z17 - z24 + z27 - z34
               + z37 - 999 z47 - z54 + z57 - z64 + z67 - z74 - z84 + z87
               >= -2999
 doideira_244: - 1000 y4 - 1000 y8 - z04 + z08 - z14 + z18 - z24 + z28 - z34
               + z38 - 999 z48 - z54 + z58 - z64 + z68 - z74 + z78 - z84
               >= -2999
 doideira_245: - 1000 y0 - 1000 y5 - z05 + z10 - z15 + z20 - z25 + z30 - z35
               + z40 - z45 - 999 z50 + z60 - z65 + z70 - z75 + z80 - z85
               >= -2999
 doideira_246: - 1000 y1 - 1000 y5 + z01 - z05 - z15 + z21 - z25 + z31 - z35
               + z41 - z45 - 999 z51 + z61 - z65 + z71 - z75 + z81 - z85
               >= -2999
 doideira_247: - 1000 y2 - 1000 y5 + z02 - z05 + z12 - z15 - z25 + z32 - z35
               + z42 - z45 - 999 z52 + z62 - z65 + z72 - z75 + z82 - z85
               >= -2999
 doideira_248: - 1000 y3 - 1000 y5 + z03 - z05 + z13 - z15 + z23 - z25 - z35
               + z43 - z45 - 999 z53 + z63 - z65 + z73 - z75 + z83 - z85
               >= -2999
 doideira_249: - 1000 y4 - 1000 y5 + z04 - z05 + z14 - z15 + z24 - z25 + z34
               - z35 - z45 - 999 z54 + z64 - z65 + z74 - z75 + z84 - z85
               >= -2999
 doideira_251: - 1000 y5 - 1000 y6 - z05 + z06 - z15 + z16 - z25 + z26 - z35
               + z36 - z45 + z46 - 999 z56 - z65 - z75 + z76 - z85 + z86
               >= -2999
 doideira_252: - 1000 y5 - 1000 y7 - z05 + z07 - z15 + z17 - z25 + z27 - z35
               + z37 - z45 + z47 - 999 z57 - z65 + z67 - z75 - z85 + z87
               >= -2999
 doideira_253: - 1000 y5 - 1000 y8 - z05 + z08 - z15 + z18 - z25 + z28 - z35
               + z38 - z45 + z48 - 999 z58 - z65 + z68 - z75 + z78 - z85
               >= -2999
 doideira_254: - 1000 y0 - 1000 y6 - z06 + z10 - z16 + z20 - z26 + z30 - z36
               + z40 - z46 + z50 - z56 - 999 z60 + z70 - z76 + z80 - z86
               >= -2999
 doideira_255: - 1000 y1 - 1000 y6 + z01 - z06 - z16 + z21 - z26 + z31 - z36
               + z41 - z46 + z51 - z56 - 999 z61 + z71 - z76 + z81 - z86
               >= -2999
 doideira_256: - 1000 y2 - 1000 y6 + z02 - z06 + z12 - z16 - z26 + z32 - z36
               + z42 - z46 + z52 - z56 - 999 z62 + z72 - z76 + z82 - z86
               >= -2999
 doideira_257: - 1000 y3 - 1000 y6 + z03 - z06 + z13 - z16 + z23 - z26 - z36
               + z43 - z46 + z53 - z56 - 999 z63 + z73 - z76 + z83 - z86
               >= -2999
 doideira_258: - 1000 y4 - 1000 y6 + z04 - z06 + z14 - z16 + z24 - z26 + z34
               - z36 - z46 + z54 - z56 - 999 z64 + z74 - z76 + z84 - z86
               >= -2999
 doideira_259: - 1000 y5 - 1000 y6 + z05 - z06 + z15 - z16 + z25 - z26 + z35
               - z36 + z45 - z46 - z56 - 999 z65 + z75 - z76 + z85 - z86
               >= -2999
 doideira_261: - 1000 y6 - 1000 y7 - z06 + z07 - z16 + z17 - z26 + z27 - z36
               + z37 - z46 + z47 - z56 + z57 - 999 z67 - z76 - z86 + z87
               >= -2999
 doideira_262: - 1000 y6 - 1000 y8 - z06 + z08 - z16 + z18 - z26 + z28 - z36
               + z38 - z46 + z48 - z56 + z58 - 999 z68 - z76 + z78 - z86
               >= -2999
 doideira_263: - 1000 y0 - 1000 y7 - z07 + z10 - z17 + z20 - z27 + z30 - z37
               + z40 - z47 + z50 - z57 + z60 - z67 - 999 z70 + z80 - z87
               >= -2999
 doideira_264: - 1000 y1 - 1000 y7 + z01 - z07 - z17 + z21 - z27 + z31 - z37
               + z41 - z47 + z51 - z57 + z61 - z67 - 999 z71 + z81 - z87
               >= -2999
 doideira_265: - 1000 y2 - 1000 y7 + z02 - z07 + z12 - z17 - z27 + z32 - z37
               + z42 - z47 + z52 - z57 + z62 - z67 - 999 z72 + z82 - z87
               >= -2999
 doideira_266: - 1000 y3 - 1000 y7 + z03 - z07 + z13 - z17 + z23 - z27 - z37
               + z43 - z47 + z53 - z57 + z63 - z67 - 999 z73 + z83 - z87
               >= -2999
 doideira_267: - 1000 y4 - 1000 y7 + z04 - z07 + z14 - z17 + z24 - z27 + z34
               - z37 - z47 + z54 - z57 + z64 - z67 - 999 z74 + z84 - z87
               >= -2999
 doideira_268: - 1000 y5 - 1000 y7 + z05 - z07 + z15 - z17 + z25 - z27 + z35
               - z37 + z45 - z47 - z57 + z65 - z67 - 999 z75 + z85 - z87
               >= -2999
 doideira_269: - 1000 y6 - 1000 y7 + z06 - z07 + z16 - z17 + z26 - z27 + z36
               - z37 + z46 - z47 + z56 - z57 - z67 - 999 z76 + z86 - z87
               >= -2999
 doideira_271: - 1000 y7 - 1000 y8 - z07 + z08 - z17 + z18 - z27 + z28 - z37
               + z38 - z47 + z48 - z57 + z58 - z67 + z68 - 999 z78 - z87
               >= -2999
 doideira_272: - 1000 y0 - 1000 y8 - z08 + z10 - z18 + z20 - z28 + z30 - z38
               + z40 - z48 + z50 - z58 + z60 - z68 + z70 - z78 - 999 z80
               >= -2999
 doideira_273: - 1000 y1 - 1000 y8 + z01 - z08 - z18 + z21 - z28 + z31 - z38
               + z41 - z48 + z51 - z58 + z61 - z68 + z71 - z78 - 999 z81
               >= -2999
 doideira_274: - 1000 y2 - 1000 y8 + z02 - z08 + z12 - z18 - z28 + z32 - z38
               + z42 - z48 + z52 - z58 + z62 - z68 + z72 - z78 - 999 z82
               >= -2999
 doideira_275: - 1000 y3 - 1000 y8 + z03 - z08 + z13 - z18 + z23 - z28 - z38
               + z43 - z48 + z53 - z58 + z63 - z68 + z73 - z78 - 999 z83
               >= -2999
 doideira_276: - 1000 y4 - 1000 y8 + z04 - z08 + z14 - z18 + z24 - z28 + z34
               - z38 - z48 + z54 - z58 + z64 - z68 + z74 - z78 - 999 z84
               >= -2999
 doideira_277: - 1000 y5 - 1000 y8 + z05 - z08 + z15 - z18 + z25 - z28 + z35
               - z38 + z45 - z48 - z58 + z65 - z68 + z75 - z78 - 999 z85
               >= -2999
 doideira_278: - 1000 y6 - 1000 y8 + z06 - z08 + z16 - z18 + z26 - z28 + z36
               - z38 + z46 - z48 + z56 - z58 - z68 + z76 - z78 - 999 z86
               >= -2999
 doideira_279: - 1000 y7 - 1000 y8 + z07 - z08 + z17 - z18 + z27 - z28 + z37
               - z38 + z47 - z48 + z57 - z58 + z67 - z68 - z78 - 999 z87
               >= -2999
Bounds
 0 <= y0 <= 1
 0 <= y1 <= 1
 0 <= y2 <= 1
 0 <= y3 <= 1
 0 <= y4 <= 1
 0 <= y5 <= 1
 0 <= y6 <= 1
 0 <= y7 <= 1
 0 <= y8 <= 1
 0 <= x01 <= 1
 0 <= x02 <= 1
 0 <= x03 <= 1
 0 <= x04 <= 1
 0 <= x05 <= 1
 0 <= x06 <= 1
 0 <= x07 <= 1
 0 <= x08 <= 1
 0 <= x10 <= 1
 0 <= x12 <= 1
 0 <= x13 <= 1
 0 <= x14 <= 1
 0 <= x15 <= 1
 0 <= x16 <= 1
 0 <= x17 <= 1
 0 <= x18 <= 1
 0 <= x20 <= 1
 0 <= x21 <= 1
 0 <= x23 <= 1
 0 <= x24 <= 1
 0 <= x25 <= 1
 0 <= x26 <= 1
 0 <= x27 <= 1
 0 <= x28 <= 1
 0 <= x30 <= 1
 0 <= x31 <= 1
 0 <= x32 <= 1
 0 <= x34 <= 1
 0 <= x35 <= 1
 0 <= x36 <= 1
 0 <= x37 <= 1
 0 <= x38 <= 1
 0 <= x40 <= 1
 0 <= x41 <= 1
 0 <= x42 <= 1
 0 <= x43 <= 1
 0 <= x45 <= 1
 0 <= x46 <= 1
 0 <= x47 <= 1
 0 <= x48 <= 1
 0 <= x50 <= 1
 0 <= x51 <= 1
 0 <= x52 <= 1
 0 <= x53 <= 1
 0 <= x54 <= 1
 0 <= x56 <= 1
 0 <= x57 <= 1
 0 <= x58 <= 1
 0 <= x60 <= 1
 0 <= x61 <= 1
 0 <= x62 <= 1
 0 <= x63 <= 1
 0 <= x64 <= 1
 0 <= x65 <= 1
 0 <= x67 <= 1
 0 <= x68 <= 1
 0 <= x70 <= 1
 0 <= x71 <= 1
 0 <= x72 <= 1
 0 <= x73 <= 1
 0 <= x74 <= 1
 0 <= x75 <= 1
 0 <= x76 <= 1
 0 <= x78 <= 1
 0 <= x80 <= 1
 0 <= x81 <= 1
 0 <= x82 <= 1
 0 <= x83 <= 1
 0 <= x84 <= 1
 0 <= x85 <= 1
 0 <= x86 <= 1
 0 <= x87 <= 1
 0 <= z01 <= 1
 0 <= z02 <= 1
 0 <= z03 <= 1
 0 <= z04 <= 1
 0 <= z05 <= 1
 0 <= z06 <= 1
 0 <= z07 <= 1
 0 <= z08 <= 1
 0 <= z10 <= 1
 0 <= z12 <= 1
 0 <= z13 <= 1
 0 <= z14 <= 1
 0 <= z15 <= 1
 0 <= z16 <= 1
 0 <= z17 <= 1
 0 <= z18 <= 1
 0 <= z20 <= 1
 0 <= z21 <= 1
 0 <= z23 <= 1
 0 <= z24 <= 1
 0 <= z25 <= 1
 0 <= z26 <= 1
 0 <= z27 <= 1
 0 <= z28 <= 1
 0 <= z30 <= 1
 0 <= z31 <= 1
 0 <= z32 <= 1
 0 <= z34 <= 1
 0 <= z35 <= 1
 0 <= z36 <= 1
 0 <= z37 <= 1
 0 <= z38 <= 1
 0 <= z40 <= 1
 0 <= z41 <= 1
 0 <= z42 <= 1
 0 <= z43 <= 1
 0 <= z45 <= 1
 0 <= z46 <= 1
 0 <= z47 <= 1
 0 <= z48 <= 1
 0 <= z50 <= 1
 0 <= z51 <= 1
 0 <= z52 <= 1
 0 <= z53 <= 1
 0 <= z54 <= 1
 0 <= z56 <= 1
 0 <= z57 <= 1
 0 <= z58 <= 1
 0 <= z60 <= 1
 0 <= z61 <= 1
 0 <= z62 <= 1
 0 <= z63 <= 1
 0 <= z64 <= 1
 0 <= z65 <= 1
 0 <= z67 <= 1
 0 <= z68 <= 1
 0 <= z70 <= 1
 0 <= z71 <= 1
 0 <= z72 <= 1
 0 <= z73 <= 1
 0 <= z74 <= 1
 0 <= z75 <= 1
 0 <= z76 <= 1
 0 <= z78 <= 1
 0 <= z80 <= 1
 0 <= z81 <= 1
 0 <= z82 <= 1
 0 <= z83 <= 1
 0 <= z84 <= 1
 0 <= z85 <= 1
 0 <= z86 <= 1
 0 <= z87 <= 1
 0 <= f01 <= 9.22337203685478e+18
 0 <= f02 <= 9.22337203685478e+18
 0 <= f03 <= 9.22337203685478e+18
 0 <= f04 <= 9.22337203685478e+18
 0 <= f05 <= 9.22337203685478e+18
 0 <= f06 <= 9.22337203685478e+18
 0 <= f07 <= 9.22337203685478e+18
 0 <= f08 <= 9.22337203685478e+18
 0 <= f10 <= 9.22337203685478e+18
 0 <= f12 <= 9.22337203685478e+18
 0 <= f13 <= 9.22337203685478e+18
 0 <= f14 <= 9.22337203685478e+18
 0 <= f15 <= 9.22337203685478e+18
 0 <= f16 <= 9.22337203685478e+18
 0 <= f17 <= 9.22337203685478e+18
 0 <= f18 <= 9.22337203685478e+18
 0 <= f20 <= 9.22337203685478e+18
 0 <= f21 <= 9.22337203685478e+18
 0 <= f23 <= 9.22337203685478e+18
 0 <= f24 <= 9.22337203685478e+18
 0 <= f25 <= 9.22337203685478e+18
 0 <= f26 <= 9.22337203685478e+18
 0 <= f27 <= 9.22337203685478e+18
 0 <= f28 <= 9.22337203685478e+18
 0 <= f30 <= 9.22337203685478e+18
 0 <= f31 <= 9.22337203685478e+18
 0 <= f32 <= 9.22337203685478e+18
 0 <= f34 <= 9.22337203685478e+18
 0 <= f35 <= 9.22337203685478e+18
 0 <= f36 <= 9.22337203685478e+18
 0 <= f37 <= 9.22337203685478e+18
 0 <= f38 <= 9.22337203685478e+18
 0 <= f40 <= 9.22337203685478e+18
 0 <= f41 <= 9.22337203685478e+18
 0 <= f42 <= 9.22337203685478e+18
 0 <= f43 <= 9.22337203685478e+18
 0 <= f45 <= 9.22337203685478e+18
 0 <= f46 <= 9.22337203685478e+18
 0 <= f47 <= 9.22337203685478e+18
 0 <= f48 <= 9.22337203685478e+18
 0 <= f50 <= 9.22337203685478e+18
 0 <= f51 <= 9.22337203685478e+18
 0 <= f52 <= 9.22337203685478e+18
 0 <= f53 <= 9.22337203685478e+18
 0 <= f54 <= 9.22337203685478e+18
 0 <= f56 <= 9.22337203685478e+18
 0 <= f57 <= 9.22337203685478e+18
 0 <= f58 <= 9.22337203685478e+18
 0 <= f60 <= 9.22337203685478e+18
 0 <= f61 <= 9.22337203685478e+18
 0 <= f62 <= 9.22337203685478e+18
 0 <= f63 <= 9.22337203685478e+18
 0 <= f64 <= 9.22337203685478e+18
 0 <= f65 <= 9.22337203685478e+18
 0 <= f67 <= 9.22337203685478e+18
 0 <= f68 <= 9.22337203685478e+18
 0 <= f70 <= 9.22337203685478e+18
 0 <= f71 <= 9.22337203685478e+18
 0 <= f72 <= 9.22337203685478e+18
 0 <= f73 <= 9.22337203685478e+18
 0 <= f74 <= 9.22337203685478e+18
 0 <= f75 <= 9.22337203685478e+18
 0 <= f76 <= 9.22337203685478e+18
 0 <= f78 <= 9.22337203685478e+18
 0 <= f80 <= 9.22337203685478e+18
 0 <= f81 <= 9.22337203685478e+18
 0 <= f82 <= 9.22337203685478e+18
 0 <= f83 <= 9.22337203685478e+18
 0 <= f84 <= 9.22337203685478e+18
 0 <= f85 <= 9.22337203685478e+18
 0 <= f86 <= 9.22337203685478e+18
 0 <= f87 <= 9.22337203685478e+18
Binaries
 y0  y1  y2  y3  y4  y5  y6  y7  y8  x01  x02  x03  x04  x05  x06  x07  x08 
 x10  x12  x13  x14  x15  x16  x17  x18  x20  x21  x23  x24  x25  x26  x27 
 x28  x30  x31  x32  x34  x35  x36  x37  x38  x40  x41  x42  x43  x45  x46 
 x47  x48  x50  x51  x52  x53  x54  x56  x57  x58  x60  x61  x62  x63  x64 
 x65  x67  x68  x70  x71  x72  x73  x74  x75  x76  x78  x80  x81  x82  x83 
 x84  x85  x86  x87  z01  z02  z03  z04  z05  z06  z07  z08  z10  z12  z13 
 z14  z15  z16  z17  z18  z20  z21  z23  z24  z25  z26  z27  z28  z30  z31 
 z32  z34  z35  z36  z37  z38  z40  z41  z42  z43  z45  z46  z47  z48  z50 
 z51  z52  z53  z54  z56  z57  z58  z60  z61  z62  z63  z64  z65  z67  z68 
 z70  z71  z72  z73  z74  z75  z76  z78  z80  z81  z82  z83  z84  z85  z86 
 z87 
Generals
 f01  f02  f03  f04  f05  f06  f07  f08  f10  f12  f13  f14  f15  f16  f17 
 f18  f20  f21  f23  f24  f25  f26  f27  f28  f30  f31  f32  f34  f35  f36 
 f37  f38  f40  f41  f42  f43  f45  f46  f47  f48  f50  f51  f52  f53  f54 
 f56  f57  f58  f60  f61  f62  f63  f64  f65  f67  f68  f70  f71  f72  f73 
 f74  f75  f76  f78  f80  f81  f82  f83  f84  f85  f86  f87 
End
